num_offers = 40;
num_halls = 10;
start=[30,80,19,76,51,66,6,13,48,22,2,80,4,31,31,16,55,19,22,13,62,56,51,83,44,10,3,50,39,47,12,27,10,37,12,14,50,8,16,21];
end=[36,98,86,90,66,75,78,39,66,91,9,99,44,71,94,47,64,69,39,99,80,87,97,98,81,61,77,74,79,97,18,96,77,56,39,70,72,11,75,56];
price=[479,218,5558,204,1110,767,1501,2059,1744,1267,758,702,979,2468,1089,2489,536,1156,1025,7093,956,3018,4651,578,3255,1197,4708,723,3528,1861,105,807,3656,284,2071,1157,1599,261,3730,2709];
requirement=[417,872,446,985,812,642,265,283,363,540,551,270,355,529,638,854,262,404,868,382,345,907,527,313,337,217,658,263,625,919,731,682,572,579,918,569,885,909,631,777];
capacity=[397,440,494,542,675,745,258,628,417,466];
